
n_res = 4;
rcap = [49, 55, 561, 555];
rtype = [1, 1, 2, 2];
n_tasks = 100;
modes =  [{1, 2, 3}, {4, 5, 6}, {7, 8, 9}, {10, 11, 12}, {13, 14, 15}, {16, 17, 18}, {19, 20, 21}, {22, 23, 24}, {25, 26, 27}, {28, 29, 30}, {31, 32, 33}, {34, 35, 36}, {37, 38, 39}, {40, 41, 42}, {43, 44, 45}, {46, 47, 48}, {49, 50, 51}, {52, 53, 54}, {55, 56, 57}, {58, 59, 60}, {61, 62, 63}, {64, 65, 66}, {67, 68, 69}, {70, 71, 72}, {73, 74, 75}, {76, 77, 78}, {79, 80, 81}, {82, 83, 84}, {85, 86, 87}, {88, 89, 90}, {91, 92, 93}, {94, 95, 96}, {97, 98, 99}, {100, 101, 102}, {103, 104, 105}, {106, 107, 108}, {109, 110, 111}, {112, 113, 114}, {115, 116, 117}, {118, 119, 120}, {121, 122, 123}, {124, 125, 126}, {127, 128, 129}, {130, 131, 132}, {133, 134, 135}, {136, 137, 138}, {139, 140, 141}, {142, 143, 144}, {145, 146, 147}, {148, 149, 150}, {151, 152, 153}, {154, 155, 156}, {157, 158, 159}, {160, 161, 162}, {163, 164, 165}, {166, 167, 168}, {169, 170, 171}, {172, 173, 174}, {175, 176, 177}, {178, 179, 180}, {181, 182, 183}, {184, 185, 186}, {187, 188, 189}, {190, 191, 192}, {193, 194, 195}, {196, 197, 198}, {199, 200, 201}, {202, 203, 204}, {205, 206, 207}, {208, 209, 210}, {211, 212, 213}, {214, 215, 216}, {217, 218, 219}, {220, 221, 222}, {223, 224, 225}, {226, 227, 228}, {229, 230, 231}, {232, 233, 234}, {235, 236, 237}, {238, 239, 240}, {241, 242, 243}, {244, 245, 246}, {247, 248, 249}, {250, 251, 252}, {253, 254, 255}, {256, 257, 258}, {259, 260, 261}, {262, 263, 264}, {265, 266, 267}, {268, 269, 270}, {271, 272, 273}, {274, 275, 276}, {277, 278, 279}, {280, 281, 282}, {283, 284, 285}, {286, 287, 288}, {289, 290, 291}, {292, 293, 294}, {295, 296, 297}, {298, 299, 300}];
succ =  [{63, 62, 54, 53, 50, 43, 40, 37, 36, 31, 27, 3}, {96, 88, 73, 72, 69, 68, 64, 63, 58, 53, 50, 43, 42, 36, 14}, {99, 94, 91, 73, 72, 71, 70, 68, 64, 60, 58, 52, 18}, {99, 97, 94, 93, 92, 91, 89, 85, 73, 71, 70, 68, 62, 60, 54, 52, 51, 44, 43, 42, 30}, {100, 99, 98, 97, 95, 93, 90, 89, 84, 81, 73, 70, 69, 56, 54, 52, 51, 46, 44, 40, 31}, {100, 99, 98, 93, 91, 90, 89, 87, 73, 72, 71, 70, 68, 66, 64, 62, 61, 58, 56, 54, 50, 46, 44, 43}, {98, 97, 96, 94, 93, 91, 72, 71, 68, 64, 58, 50, 47, 43, 23}, {94, 89, 86, 70, 69, 68, 63, 60, 58, 50, 46, 44, 39, 26}, {100, 97, 94, 93, 91, 89, 87, 86, 80, 72, 71, 68, 66, 64, 61, 58, 55, 54, 53, 50, 46}, {99, 98, 96, 93, 92, 91, 89, 87, 86, 84, 70, 69, 68, 67, 58, 55, 54, 51, 44, 42}, {97, 95, 94, 90, 88, 84, 71, 70, 69, 68, 67, 63, 56, 52, 44, 29}, {96, 94, 93, 90, 84, 81, 70, 69, 68, 67, 66, 58, 54, 52, 51, 46, 40}, {100, 99, 92, 80, 72, 68, 65, 62, 60, 56, 52, 50, 47, 42, 37}, {97, 95, 94, 91, 89, 87, 86, 85, 84, 82, 80, 79, 76, 71, 70, 67, 66, 65, 61, 60, 57, 54}, {96, 94, 93, 90, 87, 86, 84, 81, 73, 71, 70, 68, 67, 65, 60, 56, 54, 51, 46}, {97, 95, 93, 92, 91, 89, 88, 86, 83, 79, 68, 66, 64, 61, 60, 58, 53, 44}, {99, 93, 91, 90, 87, 86, 83, 77, 73, 71, 70, 68, 66, 59, 58, 51, 50, 48}, {100, 97, 96, 89, 87, 85, 84, 83, 82, 69, 61, 57, 51, 44, 42}, {99, 96, 93, 89, 85, 84, 83, 78, 69, 68, 64, 61, 52, 46, 40}, {96, 95, 92, 89, 88, 87, 83, 81, 80, 76, 72, 71, 69, 68, 67, 62, 60, 58, 53}, {95, 94, 93, 91, 88, 87, 86, 83, 72, 69, 68, 66, 64, 58, 44}, {95, 94, 91, 88, 86, 70, 66, 64, 44, 35}, {92, 89, 87, 86, 84, 82, 70, 69, 54, 44, 42}, {97, 94, 92, 91, 88, 87, 83, 82, 81, 80, 77, 71, 69, 64, 59, 50}, {98, 95, 93, 92, 90, 89, 86, 85, 84, 76, 66, 65, 60, 54, 51}, {93, 91, 90, 88, 87, 82, 80, 79, 76, 67, 66, 65, 61, 54}, {96, 94, 92, 85, 84, 83, 81, 80, 79, 76, 72, 66, 65, 64, 59}, {97, 94, 68, 66, 64, 61, 50, 44}, {98, 91, 89, 86, 85, 83, 82, 81, 80, 79, 77, 76, 66, 65, 59}, {100, 98, 88, 87, 86, 84, 81, 80, 78, 77, 76, 69, 65, 64}, {94, 88, 87, 86, 85, 80, 79, 76, 75, 72, 68, 66, 64}, {95, 91, 89, 88, 86, 85, 82, 81, 80, 79, 78, 76, 75, 74, 72}, {97, 94, 90, 89, 87, 86, 83, 82, 81, 80, 79, 77, 76, 59}, {95, 94, 93, 80, 76, 67, 66, 65, 61}, {96, 90, 89, 78, 76, 69, 54}, {98, 84, 79, 78, 67, 44}, {96, 88, 86, 85, 82, 81, 79, 77, 74, 66}, {96, 93, 82, 81, 79, 76, 75, 74, 71}, {98, 97, 91, 84, 82, 76, 74, 65}, {91, 87, 82, 80, 77, 65, 59}, {93, 88, 87, 79, 77, 76, 59}, {95, 90, 81, 76, 66, 59}, {84, 79, 78, 76, 75, 67}, {80, 77, 76, 65, 59}, {92, 89, 76, 70, 65}, {92, 88, 82, 79, 77, 74}, {82, 81, 79, 77, 76, 74}, {89, 85, 84, 81, 78, 74}, {96, 89, 87, 85, 75, 74}, {85, 84, 78, 76, 74}, {88, 80, 79, 75, 74}, {87, 86, 82, 76, 74}, {90, 84, 78, 77, 74}, {83, 77, 59}, {82, 76, 60}, {83, 78, 76, 74}, {93, 92, 77, 74}, {85, 74, 65}, {75, 74}, {77, 74}, {81, 74}, {86, 74}, {91, 83}, {67}, {75}, {78}, {74}, {74}, {79}, {74}, {78}, {77}, {82}, {}, {}, {}, {}, {}, {}, {}, {}, {}, {}, {}, {}, {}, {}, {}, {}, {}, {}, {}, {}, {}, {}, {}, {}, {}, {}, {}];
n_opt = 300;
dur = [1, 3, 4, 1, 6, 10, 2, 4, 7, 2, 5, 10, 3, 7, 8, 4, 5, 7, 1, 2, 3, 4, 7, 8, 1, 8, 9, 2, 3, 8, 3, 5, 6, 3, 4, 8, 3, 4, 6, 3, 4, 9, 2, 3, 6, 3, 8, 10, 6, 8, 9, 1, 9, 10, 1, 6, 8, 4, 7, 9, 3, 5, 9, 1, 4, 8, 2, 5, 7, 1, 2, 9, 1, 9, 10, 3, 6, 10, 4, 5, 6, 1, 4, 9, 2, 4, 7, 4, 7, 8, 1, 2, 8, 3, 5, 6, 3, 4, 9, 4, 9, 10, 3, 4, 5, 1, 2, 3, 4, 5, 8, 5, 9, 10, 2, 4, 5, 2, 6, 8, 3, 4, 6, 6, 7, 9, 3, 4, 9, 4, 7, 10, 2, 3, 5, 3, 4, 5, 1, 4, 9, 2, 3, 5, 3, 9, 10, 3, 7, 9, 2, 3, 4, 4, 8, 9, 2, 3, 10, 1, 5, 9, 4, 9, 10, 3, 4, 6, 1, 2, 4, 5, 6, 8, 5, 6, 10, 1, 4, 7, 5, 8, 9, 8, 9, 10, 2, 7, 10, 1, 2, 5, 1, 6, 9, 1, 7, 10, 3, 6, 10, 1, 2, 7, 5, 6, 9, 2, 5, 6, 4, 6, 8, 5, 7, 8, 1, 4, 5, 7, 9, 10, 3, 7, 8, 1, 9, 10, 3, 6, 10, 8, 9, 10, 2, 7, 9, 1, 4, 5, 3, 7, 8, 4, 5, 6, 1, 5, 8, 4, 7, 9, 4, 7, 9, 2, 3, 4, 3, 4, 7, 3, 4, 9, 5, 7, 8, 2, 4, 8, 4, 6, 9, 1, 7, 9, 6, 7, 8, 1, 2, 3, 1, 2, 10, 9, 9, 10, 5, 7, 9, 4, 5, 6, 4, 5, 10, 4, 5, 7];
rreq = [|4, 4, 4, 3, 3, 3, 3, 3, 3, 2, 1, 1, 2, 2, 2, 3, 3, 2, 2, 2, 2, 2, 1, 1, 5, 4, 4, 3, 3, 3, 3, 2, 2, 4, 3, 3, 4, 4, 4, 4, 2, 2, 4, 3, 2, 3, 2, 1, 3, 3, 2, 4, 3, 2, 2, 2, 2, 2, 1, 1, 3, 3, 2, 1, 1, 1, 3, 3, 1, 5, 5, 5, 4, 3, 2, 3, 2, 2, 2, 2, 2, 1, 1, 1, 2, 1, 1, 3, 3, 3, 1, 1, 1, 4, 3, 3, 4, 3, 3, 4, 3, 2, 4, 3, 3, 2, 2, 1, 4, 2, 1, 3, 2, 2, 3, 3, 2, 4, 3, 3, 3, 2, 1, 5, 4, 4, 5, 5, 5, 4, 4, 4, 5, 3, 3, 5, 4, 4, 4, 3, 3, 5, 2, 1, 5, 4, 4, 4, 3, 2, 4, 2, 2, 3, 2, 2, 5, 3, 3, 3, 3, 2, 5, 3, 2, 1, 1, 1, 5, 4, 4, 4, 4, 4, 3, 3, 3, 3, 2, 2, 3, 2, 2, 1, 1, 1, 5, 3, 3, 3, 3, 3, 3, 3, 1, 4, 3, 3, 4, 2, 2, 3, 3, 1, 2, 2, 2, 5, 4, 4, 4, 3, 2, 4, 3, 3, 4, 3, 2, 4, 3, 3, 4, 2, 2, 4, 4, 4, 2, 1, 1, 4, 3, 3, 2, 1, 1, 4, 3, 2, 3, 3, 3, 1, 1, 1, 2, 2, 1, 4, 4, 3, 5, 3, 2, 2, 1, 1, 4, 3, 3, 3, 1, 1, 3, 1, 1, 1, 1, 1, 5, 4, 3, 3, 2, 1, 4, 3, 2, 3, 2, 2, 4, 3, 2, 4, 4, 4, 4, 3, 2, 2, 1, 1, 3, 3, 3, 5, 5, 5
 |5, 3, 3, 1, 1, 1, 3, 1, 1, 3, 3, 2, 5, 3, 1, 2, 1, 1, 5, 2, 2, 4, 4, 3, 5, 5, 5, 4, 3, 3, 3, 2, 2, 4, 2, 2, 3, 3, 2, 4, 3, 2, 3, 3, 3, 4, 3, 1, 4, 3, 2, 2, 2, 2, 4, 4, 4, 2, 2, 2, 5, 4, 3, 3, 2, 2, 2, 2, 2, 1, 1, 1, 4, 4, 3, 3, 3, 3, 5, 5, 5, 4, 2, 2, 2, 1, 1, 4, 4, 2, 3, 3, 2, 4, 4, 4, 2, 1, 1, 3, 1, 1, 3, 3, 3, 4, 2, 1, 3, 2, 2, 4, 3, 1, 4, 2, 2, 5, 5, 5, 5, 5, 5, 3, 3, 3, 1, 1, 1, 4, 3, 3, 5, 2, 1, 5, 3, 3, 5, 4, 4, 4, 3, 3, 4, 3, 2, 5, 3, 3, 2, 2, 2, 2, 1, 1, 3, 3, 1, 3, 3, 3, 4, 4, 4, 4, 3, 3, 5, 3, 3, 4, 4, 4, 3, 2, 2, 4, 4, 3, 2, 2, 1, 5, 3, 1, 5, 5, 5, 4, 2, 2, 4, 4, 4, 5, 3, 3, 2, 1, 1, 5, 4, 3, 3, 2, 2, 3, 2, 2, 4, 3, 3, 3, 2, 2, 5, 4, 4, 5, 5, 5, 3, 3, 3, 5, 4, 3, 5, 3, 3, 1, 1, 1, 4, 4, 4, 1, 1, 1, 5, 3, 3, 5, 3, 2, 5, 3, 3, 2, 1, 1, 2, 2, 2, 3, 3, 3, 3, 3, 3, 1, 1, 1, 4, 2, 2, 5, 5, 5, 4, 2, 2, 1, 1, 1, 3, 2, 2, 4, 4, 3, 4, 4, 4, 2, 1, 1, 2, 1, 1, 5, 3, 3, 3, 3, 3, 3, 2, 1
 |7, 6, 6, 5, 4, 4, 10, 8, 7, 5, 4, 3, 9, 6, 4, 4, 3, 3, 8, 7, 4, 9, 6, 4, 10, 8, 8, 10, 6, 5, 3, 3, 3, 6, 6, 6, 8, 6, 4, 6, 5, 5, 5, 3, 3, 4, 2, 2, 7, 5, 1, 6, 6, 4, 2, 2, 2, 9, 9, 9, 4, 4, 3, 6, 4, 4, 6, 4, 4, 8, 8, 8, 7, 7, 7, 1, 1, 1, 8, 8, 7, 7, 7, 5, 9, 6, 6, 2, 2, 1, 4, 4, 4, 6, 5, 5, 8, 6, 6, 10, 10, 10, 6, 5, 1, 10, 7, 4, 10, 7, 6, 3, 2, 1, 5, 4, 4, 7, 4, 4, 3, 2, 2, 3, 2, 2, 9, 6, 5, 7, 7, 6, 10, 8, 6, 10, 9, 8, 3, 2, 1, 7, 4, 3, 6, 5, 5, 3, 3, 3, 9, 8, 7, 4, 4, 2, 8, 6, 6, 6, 4, 3, 3, 3, 2, 5, 5, 5, 6, 5, 2, 5, 4, 4, 6, 5, 3, 5, 5, 4, 5, 2, 1, 10, 9, 9, 1, 1, 1, 9, 9, 9, 9, 7, 6, 2, 2, 2, 10, 7, 4, 5, 3, 1, 6, 4, 1, 2, 2, 2, 6, 6, 6, 2, 2, 2, 5, 4, 1, 7, 6, 4, 8, 6, 5, 4, 4, 4, 8, 8, 8, 7, 4, 3, 6, 4, 4, 9, 9, 9, 5, 5, 5, 4, 2, 2, 4, 4, 4, 2, 2, 1, 5, 4, 4, 6, 6, 6, 1, 1, 1, 7, 5, 3, 5, 4, 3, 8, 6, 4, 8, 8, 8, 5, 5, 1, 7, 7, 7, 6, 5, 5, 8, 7, 7, 4, 4, 4, 7, 5, 4, 4, 4, 4, 8, 6, 6, 5, 3, 2
 |5, 2, 1, 7, 4, 3, 9, 8, 7, 2, 2, 1, 9, 8, 8, 7, 6, 3, 5, 3, 2, 9, 4, 4, 8, 7, 5, 8, 7, 7, 7, 6, 5, 3, 3, 2, 3, 3, 2, 7, 6, 6, 4, 3, 2, 8, 8, 8, 9, 9, 9, 7, 6, 5, 5, 3, 2, 5, 5, 4, 5, 4, 2, 3, 2, 1, 8, 3, 1, 7, 5, 4, 6, 5, 4, 7, 7, 6, 7, 3, 2, 8, 6, 5, 2, 2, 1, 7, 5, 4, 3, 2, 3, 4, 2, 1, 8, 5, 4, 2, 2, 2, 5, 3, 2, 4, 3, 2, 3, 3, 3, 8, 7, 7, 5, 5, 3, 7, 7, 6, 2, 2, 2, 10, 9, 8, 8, 5, 5, 4, 4, 4, 8, 6, 4, 5, 3, 3, 6, 5, 5, 5, 4, 4, 6, 4, 3, 5, 3, 3, 7, 4, 2, 9, 8, 8, 2, 2, 1, 1, 1, 1, 8, 7, 4, 5, 2, 1, 10, 6, 4, 8, 8, 6, 8, 7, 6, 7, 6, 6, 6, 6, 4, 3, 3, 1, 7, 6, 5, 10, 7, 6, 6, 3, 3, 3, 2, 1, 4, 3, 1, 7, 5, 5, 6, 4, 3, 9, 5, 3, 9, 7, 5, 9, 6, 3, 8, 6, 6, 4, 3, 3, 6, 4, 3, 6, 5, 5, 7, 3, 2, 5, 5, 2, 7, 5, 4, 6, 6, 5, 8, 4, 2, 3, 3, 2, 8, 6, 5, 5, 4, 2, 3, 2, 2, 8, 7, 6, 10, 10, 9, 7, 6, 5, 4, 4, 3, 7, 6, 2, 8, 7, 6, 5, 3, 2, 7, 7, 7, 2, 1, 1, 9, 7, 4, 9, 10, 9, 7, 6, 5, 5, 5, 4, 4, 3, 2, 3, 3, 1|];